minimize
obj: 4 x_1,1_ + 3 x_1,2_ + 5 x_1,3_ + 2 x_1,4_ + 3 x_1,5_ + 2 x_1,6_ + 3 x_2,1_ + 6 x_2,2_ + 5 x_2,3_ + 3 x_2,4_ + 5 x_2,5_ + 4 x_2,6_ + 2 x_3,1_ + 3 x_3,2_ + 2 x_3,3_ + 4 x_3,4_ + 5 x_3,5_ + 1 x_3,6_
subject to
capacity_constrant_1_: 5 x_1,1_ + 6 x_1,2_ + 8 x_1,3_ + 2 x_1,4_ + 2 x_1,5_ + 3 x_1,6_ <= 10
capacity_constrant_2_: 4 x_2,1_ + 7 x_2,2_ + 2 x_2,3_ + 9 x_2,4_ + 3 x_2,5_ + 7 x_2,6_ <= 9
capacity_constrant_3_: 9 x_3,1_ + 4 x_3,2_ + 5 x_3,3_ + 6 x_3,4_ + 7 x_3,5_ + 3 x_3,6_ <= 12
assingment_constrant_1_: 1 x_1,1_ + 1 x_2,1_ + 1 x_3,1_ = 1
assingment_constrant_2_: 1 x_1,2_ + 1 x_2,2_ + 1 x_3,2_ = 1
assingment_constrant_3_: 1 x_1,3_ + 1 x_2,3_ + 1 x_3,3_ = 1
assingment_constrant_4_: 1 x_1,4_ + 1 x_2,4_ + 1 x_3,4_ = 1
assingment_constrant_5_: 1 x_1,5_ + 1 x_2,5_ + 1 x_3,5_ = 1
assingment_constrant_6_: 1 x_1,6_ + 1 x_2,6_ + 1 x_3,6_ = 1
Bounds
Binary
x_1,1_
x_2,1_
x_3,1_
x_1,2_
x_2,2_
x_3,2_
x_1,3_
x_2,3_
x_3,3_
x_1,4_
x_2,4_
x_3,4_
x_1,5_
x_2,5_
x_3,5_
x_1,6_
x_2,6_
x_3,6_
End
